152648 9864 1140250 22746131 177176 0.94
152880 7061 789056 15703709 178922 0.96
152526 10922 1267274 25239388 179830 0.89
153378 7055 790207 15740030 178530 0.98
152778 6317 711001 14153501 178602 0.96
152686 10565 1213854 24267187 178030 0.99
152688 10804 1267184 25157854 177194 0.98
153612 7075 789911 16241785 178990 0.97
152878 7598 859393 17086359 178462 0.86
153228 6725 751905 15591150 179148 0.95
